p tw 40 98
0 1
0 20
0 11
0 15
1 2
1 23
1 35
2 3
2 13
2 7
2 30
2 39
3 14
3 23
3 9
3 29
4 5
4 14
4 37
4 11
4 19
5 7
5 12
5 22
5 32
5 16
6 7
6 28
6 13
7 22
7 16
7 14
7 27
7 36
8 9
8 24
8 33
8 14
8 35
8 26
8 39
8 28
9 34
9 21
10 11
10 18
10 35
10 33
10 32
11 24
11 27
11 25
11 33
12 13
12 16
12 28
12 26
13 30
13 21
13 28
14 15
14 25
14 19
14 33
14 30
14 23
15 36
16 17
16 25
16 29
17 21
17 27
18 22
18 37
19 20
19 25
19 24
20 26
22 23
22 37
23 31
24 38
25 31
26 27
26 30
27 29
27 34
27 32
29 32
29 31
29 36
29 35
30 39
31 33
31 34
32 33
32 35
38 39
